; benchmark generated from python API
(set-info :status unknown)
(declare-fun cell_1_3 () Int)
(declare-fun cell_2_4 () Int)
(declare-fun cell_3_8 () Int)
(declare-fun cell_4_1 () Int)
(declare-fun cell_5_9 () Int)
(declare-fun cell_1_1 () Int)
(declare-fun cell_2_1 () Int)
(declare-fun cell_3_1 () Int)
(declare-fun cell_5_1 () Int)
(declare-fun cell_6_1 () Int)
(declare-fun cell_7_1 () Int)
(declare-fun cell_8_1 () Int)
(declare-fun cell_9_1 () Int)
(declare-fun cell_1_2 () Int)
(declare-fun cell_2_2 () Int)
(declare-fun cell_3_2 () Int)
(declare-fun cell_4_2 () Int)
(declare-fun cell_5_2 () Int)
(declare-fun cell_6_2 () Int)
(declare-fun cell_7_2 () Int)
(declare-fun cell_8_2 () Int)
(declare-fun cell_9_2 () Int)
(declare-fun cell_2_3 () Int)
(declare-fun cell_3_3 () Int)
(declare-fun cell_4_3 () Int)
(declare-fun cell_5_3 () Int)
(declare-fun cell_6_3 () Int)
(declare-fun cell_7_3 () Int)
(declare-fun cell_8_3 () Int)
(declare-fun cell_9_3 () Int)
(declare-fun cell_1_4 () Int)
(declare-fun cell_3_4 () Int)
(declare-fun cell_4_4 () Int)
(declare-fun cell_5_4 () Int)
(declare-fun cell_6_4 () Int)
(declare-fun cell_7_4 () Int)
(declare-fun cell_8_4 () Int)
(declare-fun cell_9_4 () Int)
(declare-fun cell_1_5 () Int)
(declare-fun cell_2_5 () Int)
(declare-fun cell_3_5 () Int)
(declare-fun cell_4_5 () Int)
(declare-fun cell_5_5 () Int)
(declare-fun cell_6_5 () Int)
(declare-fun cell_7_5 () Int)
(declare-fun cell_8_5 () Int)
(declare-fun cell_9_5 () Int)
(declare-fun cell_1_6 () Int)
(declare-fun cell_2_6 () Int)
(declare-fun cell_3_6 () Int)
(declare-fun cell_4_6 () Int)
(declare-fun cell_5_6 () Int)
(declare-fun cell_6_6 () Int)
(declare-fun cell_7_6 () Int)
(declare-fun cell_8_6 () Int)
(declare-fun cell_9_6 () Int)
(declare-fun cell_1_7 () Int)
(declare-fun cell_2_7 () Int)
(declare-fun cell_3_7 () Int)
(declare-fun cell_4_7 () Int)
(declare-fun cell_5_7 () Int)
(declare-fun cell_6_7 () Int)
(declare-fun cell_7_7 () Int)
(declare-fun cell_8_7 () Int)
(declare-fun cell_9_7 () Int)
(declare-fun cell_1_8 () Int)
(declare-fun cell_2_8 () Int)
(declare-fun cell_4_8 () Int)
(declare-fun cell_5_8 () Int)
(declare-fun cell_6_8 () Int)
(declare-fun cell_7_8 () Int)
(declare-fun cell_8_8 () Int)
(declare-fun cell_9_8 () Int)
(declare-fun cell_1_9 () Int)
(declare-fun cell_2_9 () Int)
(declare-fun cell_3_9 () Int)
(declare-fun cell_4_9 () Int)
(declare-fun cell_6_9 () Int)
(declare-fun cell_7_9 () Int)
(declare-fun cell_8_9 () Int)
(declare-fun cell_9_9 () Int)
(assert
 (= cell_1_3 1))
(assert
 (= cell_2_4 1))
(assert
 (= cell_3_8 1))
(assert
 (= cell_4_1 1))
(assert
 (= cell_5_9 1))
(assert
 (let (($x9134 (= cell_1_1 9)))
 (let (($x2270 (= cell_1_1 8)))
 (let (($x8213 (= cell_1_1 7)))
 (let (($x9999 (= cell_1_1 6)))
 (let (($x7945 (= cell_1_1 5)))
 (let (($x2186 (= cell_1_1 4)))
 (let (($x1507 (= cell_1_1 3)))
 (let (($x4954 (= cell_1_1 2)))
 (let (($x7146 (= cell_1_1 1)))
 (or $x7146 $x4954 $x1507 $x2186 $x7945 $x9999 $x8213 $x2270 $x9134)))))))))))
(assert
 (let (($x4903 (= cell_2_1 9)))
 (let (($x3588 (= cell_2_1 8)))
 (let (($x4833 (= cell_2_1 7)))
 (let (($x5844 (= cell_2_1 6)))
 (let (($x106 (= cell_2_1 5)))
 (let (($x7449 (= cell_2_1 4)))
 (let (($x2727 (= cell_2_1 3)))
 (let (($x2903 (= cell_2_1 2)))
 (let (($x5161 (= cell_2_1 1)))
 (or $x5161 $x2903 $x2727 $x7449 $x106 $x5844 $x4833 $x3588 $x4903)))))))))))
(assert
 (let (($x10224 (= cell_3_1 9)))
 (let (($x8723 (= cell_3_1 8)))
 (let (($x9665 (= cell_3_1 7)))
 (let (($x8082 (= cell_3_1 6)))
 (let (($x4840 (= cell_3_1 5)))
 (let (($x4896 (= cell_3_1 4)))
 (let (($x8497 (= cell_3_1 3)))
 (let (($x4895 (= cell_3_1 2)))
 (let (($x9076 (= cell_3_1 1)))
 (or $x9076 $x4895 $x8497 $x4896 $x4840 $x8082 $x9665 $x8723 $x10224)))))))))))
(assert
 (let (($x1645 (= cell_4_1 1)))
 (or $x1645 (= cell_4_1 2) (= cell_4_1 3) (= cell_4_1 4) (= cell_4_1 5) (= cell_4_1 6) (= cell_4_1 7) (= cell_4_1 8) (= cell_4_1 9))))
(assert
 (let (($x4212 (= cell_5_1 9)))
 (let (($x1323 (= cell_5_1 8)))
 (let (($x8077 (= cell_5_1 7)))
 (let (($x5200 (= cell_5_1 6)))
 (let (($x3396 (= cell_5_1 5)))
 (let (($x8783 (= cell_5_1 4)))
 (let (($x3351 (= cell_5_1 3)))
 (let (($x5674 (= cell_5_1 2)))
 (let (($x7830 (= cell_5_1 1)))
 (or $x7830 $x5674 $x3351 $x8783 $x3396 $x5200 $x8077 $x1323 $x4212)))))))))))
(assert
 (let (($x9738 (= cell_6_1 1)))
 (or $x9738 (= cell_6_1 2) (= cell_6_1 3) (= cell_6_1 4) (= cell_6_1 5) (= cell_6_1 6) (= cell_6_1 7) (= cell_6_1 8) (= cell_6_1 9))))
(assert
 (let (($x3972 (= cell_7_1 1)))
 (or $x3972 (= cell_7_1 2) (= cell_7_1 3) (= cell_7_1 4) (= cell_7_1 5) (= cell_7_1 6) (= cell_7_1 7) (= cell_7_1 8) (= cell_7_1 9))))
(assert
 (let (($x9334 (= cell_8_1 1)))
 (or $x9334 (= cell_8_1 2) (= cell_8_1 3) (= cell_8_1 4) (= cell_8_1 5) (= cell_8_1 6) (= cell_8_1 7) (= cell_8_1 8) (= cell_8_1 9))))
(assert
 (let (($x7790 (= cell_9_1 1)))
 (or $x7790 (= cell_9_1 2) (= cell_9_1 3) (= cell_9_1 4) (= cell_9_1 5) (= cell_9_1 6) (= cell_9_1 7) (= cell_9_1 8) (= cell_9_1 9))))
(assert
 (let (($x3721 (= cell_1_2 9)))
 (let (($x2708 (= cell_1_2 8)))
 (let (($x1492 (= cell_1_2 7)))
 (let (($x2212 (= cell_1_2 6)))
 (let (($x6476 (= cell_1_2 5)))
 (let (($x1072 (= cell_1_2 4)))
 (let (($x3293 (= cell_1_2 3)))
 (let (($x1860 (= cell_1_2 2)))
 (let (($x4703 (= cell_1_2 1)))
 (or $x4703 $x1860 $x3293 $x1072 $x6476 $x2212 $x1492 $x2708 $x3721)))))))))))
(assert
 (let (($x2887 (= cell_2_2 9)))
 (let (($x4976 (= cell_2_2 8)))
 (let (($x6603 (= cell_2_2 7)))
 (let (($x10168 (= cell_2_2 6)))
 (let (($x2576 (= cell_2_2 5)))
 (let (($x5243 (= cell_2_2 4)))
 (let (($x7475 (= cell_2_2 3)))
 (let (($x6024 (= cell_2_2 2)))
 (let (($x5922 (= cell_2_2 1)))
 (or $x5922 $x6024 $x7475 $x5243 $x2576 $x10168 $x6603 $x4976 $x2887)))))))))))
(assert
 (let (($x1649 (= cell_3_2 9)))
 (let (($x6688 (= cell_3_2 8)))
 (let (($x4588 (= cell_3_2 7)))
 (let (($x2238 (= cell_3_2 6)))
 (let (($x7260 (= cell_3_2 5)))
 (let (($x3954 (= cell_3_2 4)))
 (let (($x4009 (= cell_3_2 3)))
 (let (($x6877 (= cell_3_2 2)))
 (let (($x7318 (= cell_3_2 1)))
 (or $x7318 $x6877 $x4009 $x3954 $x7260 $x2238 $x4588 $x6688 $x1649)))))))))))
(assert
 (let (($x7897 (= cell_4_2 1)))
 (or $x7897 (= cell_4_2 2) (= cell_4_2 3) (= cell_4_2 4) (= cell_4_2 5) (= cell_4_2 6) (= cell_4_2 7) (= cell_4_2 8) (= cell_4_2 9))))
(assert
 (let (($x6166 (= cell_5_2 9)))
 (let (($x8139 (= cell_5_2 8)))
 (let (($x4495 (= cell_5_2 7)))
 (let (($x3184 (= cell_5_2 6)))
 (let (($x3320 (= cell_5_2 5)))
 (let (($x6547 (= cell_5_2 4)))
 (let (($x8555 (= cell_5_2 3)))
 (let (($x5549 (= cell_5_2 2)))
 (let (($x8525 (= cell_5_2 1)))
 (or $x8525 $x5549 $x8555 $x6547 $x3320 $x3184 $x4495 $x8139 $x6166)))))))))))
(assert
 (let (($x7929 (= cell_6_2 1)))
 (or $x7929 (= cell_6_2 2) (= cell_6_2 3) (= cell_6_2 4) (= cell_6_2 5) (= cell_6_2 6) (= cell_6_2 7) (= cell_6_2 8) (= cell_6_2 9))))
(assert
 (or (= cell_7_2 1) (= cell_7_2 2) (= cell_7_2 3) (= cell_7_2 4) (= cell_7_2 5) (= cell_7_2 6) (= cell_7_2 7) (= cell_7_2 8) (= cell_7_2 9)))
(assert
 (or (= cell_8_2 1) (= cell_8_2 2) (= cell_8_2 3) (= cell_8_2 4) (= cell_8_2 5) (= cell_8_2 6) (= cell_8_2 7) (= cell_8_2 8) (= cell_8_2 9)))
(assert
 (let (($x4472 (= cell_9_2 1)))
 (or $x4472 (= cell_9_2 2) (= cell_9_2 3) (= cell_9_2 4) (= cell_9_2 5) (= cell_9_2 6) (= cell_9_2 7) (= cell_9_2 8) (= cell_9_2 9))))
(assert
 (let (($x7149 (= cell_1_3 1)))
 (or $x7149 (= cell_1_3 2) (= cell_1_3 3) (= cell_1_3 4) (= cell_1_3 5) (= cell_1_3 6) (= cell_1_3 7) (= cell_1_3 8) (= cell_1_3 9))))
(assert
 (let (($x3798 (= cell_2_3 9)))
 (let (($x5582 (= cell_2_3 8)))
 (let (($x7239 (= cell_2_3 7)))
 (let (($x7889 (= cell_2_3 6)))
 (let (($x576 (= cell_2_3 5)))
 (let (($x10040 (= cell_2_3 4)))
 (let (($x1705 (= cell_2_3 3)))
 (let (($x7373 (= cell_2_3 2)))
 (let (($x8065 (= cell_2_3 1)))
 (or $x8065 $x7373 $x1705 $x10040 $x576 $x7889 $x7239 $x5582 $x3798)))))))))))
(assert
 (let (($x4826 (= cell_3_3 9)))
 (let (($x4121 (= cell_3_3 8)))
 (let (($x2945 (= cell_3_3 7)))
 (let (($x6534 (= cell_3_3 6)))
 (let (($x6337 (= cell_3_3 5)))
 (let (($x2833 (= cell_3_3 4)))
 (let (($x4330 (= cell_3_3 3)))
 (let (($x5507 (= cell_3_3 2)))
 (let (($x237 (= cell_3_3 1)))
 (or $x237 $x5507 $x4330 $x2833 $x6337 $x6534 $x2945 $x4121 $x4826)))))))))))
(assert
 (let (($x1006 (= cell_4_3 1)))
 (or $x1006 (= cell_4_3 2) (= cell_4_3 3) (= cell_4_3 4) (= cell_4_3 5) (= cell_4_3 6) (= cell_4_3 7) (= cell_4_3 8) (= cell_4_3 9))))
(assert
 (let (($x133 (= cell_5_3 9)))
 (let (($x8310 (= cell_5_3 8)))
 (let (($x5513 (= cell_5_3 7)))
 (let (($x1439 (= cell_5_3 6)))
 (let (($x9360 (= cell_5_3 5)))
 (let (($x9500 (= cell_5_3 4)))
 (let (($x3715 (= cell_5_3 3)))
 (let (($x3423 (= cell_5_3 2)))
 (let (($x7590 (= cell_5_3 1)))
 (or $x7590 $x3423 $x3715 $x9500 $x9360 $x1439 $x5513 $x8310 $x133)))))))))))
(assert
 (let (($x6311 (= cell_6_3 1)))
 (or $x6311 (= cell_6_3 2) (= cell_6_3 3) (= cell_6_3 4) (= cell_6_3 5) (= cell_6_3 6) (= cell_6_3 7) (= cell_6_3 8) (= cell_6_3 9))))
(assert
 (let (($x5458 (= cell_7_3 1)))
 (or $x5458 (= cell_7_3 2) (= cell_7_3 3) (= cell_7_3 4) (= cell_7_3 5) (= cell_7_3 6) (= cell_7_3 7) (= cell_7_3 8) (= cell_7_3 9))))
(assert
 (let (($x3514 (= cell_8_3 1)))
 (or $x3514 (= cell_8_3 2) (= cell_8_3 3) (= cell_8_3 4) (= cell_8_3 5) (= cell_8_3 6) (= cell_8_3 7) (= cell_8_3 8) (= cell_8_3 9))))
(assert
 (let (($x5506 (= cell_9_3 1)))
 (or $x5506 (= cell_9_3 2) (= cell_9_3 3) (= cell_9_3 4) (= cell_9_3 5) (= cell_9_3 6) (= cell_9_3 7) (= cell_9_3 8) (= cell_9_3 9))))
(assert
 (let (($x2070 (= cell_1_4 9)))
 (let (($x4593 (= cell_1_4 8)))
 (let (($x9820 (= cell_1_4 7)))
 (let (($x2867 (= cell_1_4 6)))
 (let (($x4270 (= cell_1_4 5)))
 (let (($x3081 (= cell_1_4 4)))
 (let (($x10051 (= cell_1_4 3)))
 (let (($x3129 (= cell_1_4 2)))
 (let (($x9426 (= cell_1_4 1)))
 (or $x9426 $x3129 $x10051 $x3081 $x4270 $x2867 $x9820 $x4593 $x2070)))))))))))
(assert
 (let (($x8238 (= cell_2_4 1)))
 (or $x8238 (= cell_2_4 2) (= cell_2_4 3) (= cell_2_4 4) (= cell_2_4 5) (= cell_2_4 6) (= cell_2_4 7) (= cell_2_4 8) (= cell_2_4 9))))
(assert
 (let (($x6180 (= cell_3_4 9)))
 (let (($x8462 (= cell_3_4 8)))
 (let (($x5193 (= cell_3_4 7)))
 (let (($x6704 (= cell_3_4 6)))
 (let (($x9294 (= cell_3_4 5)))
 (let (($x8830 (= cell_3_4 4)))
 (let (($x5933 (= cell_3_4 3)))
 (let (($x3380 (= cell_3_4 2)))
 (let (($x2830 (= cell_3_4 1)))
 (or $x2830 $x3380 $x5933 $x8830 $x9294 $x6704 $x5193 $x8462 $x6180)))))))))))
(assert
 (let (($x4436 (= cell_4_4 1)))
 (or $x4436 (= cell_4_4 2) (= cell_4_4 3) (= cell_4_4 4) (= cell_4_4 5) (= cell_4_4 6) (= cell_4_4 7) (= cell_4_4 8) (= cell_4_4 9))))
(assert
 (let (($x7201 (= cell_5_4 9)))
 (let (($x9746 (= cell_5_4 8)))
 (let (($x6469 (= cell_5_4 7)))
 (let (($x5029 (= cell_5_4 6)))
 (let (($x7408 (= cell_5_4 5)))
 (let (($x1234 (= cell_5_4 4)))
 (let (($x10120 (= cell_5_4 3)))
 (let (($x4437 (= cell_5_4 2)))
 (let (($x4345 (= cell_5_4 1)))
 (or $x4345 $x4437 $x10120 $x1234 $x7408 $x5029 $x6469 $x9746 $x7201)))))))))))
(assert
 (let (($x8992 (= cell_6_4 1)))
 (or $x8992 (= cell_6_4 2) (= cell_6_4 3) (= cell_6_4 4) (= cell_6_4 5) (= cell_6_4 6) (= cell_6_4 7) (= cell_6_4 8) (= cell_6_4 9))))
(assert
 (let (($x1417 (= cell_7_4 1)))
 (or $x1417 (= cell_7_4 2) (= cell_7_4 3) (= cell_7_4 4) (= cell_7_4 5) (= cell_7_4 6) (= cell_7_4 7) (= cell_7_4 8) (= cell_7_4 9))))
(assert
 (let (($x9528 (= cell_8_4 1)))
 (or $x9528 (= cell_8_4 2) (= cell_8_4 3) (= cell_8_4 4) (= cell_8_4 5) (= cell_8_4 6) (= cell_8_4 7) (= cell_8_4 8) (= cell_8_4 9))))
(assert
 (let (($x3085 (= cell_9_4 1)))
 (or $x3085 (= cell_9_4 2) (= cell_9_4 3) (= cell_9_4 4) (= cell_9_4 5) (= cell_9_4 6) (= cell_9_4 7) (= cell_9_4 8) (= cell_9_4 9))))
(assert
 (let (($x1500 (= cell_1_5 9)))
 (let (($x8575 (= cell_1_5 8)))
 (let (($x2558 (= cell_1_5 7)))
 (let (($x1881 (= cell_1_5 6)))
 (let (($x5903 (= cell_1_5 5)))
 (let (($x6109 (= cell_1_5 4)))
 (let (($x5433 (= cell_1_5 3)))
 (let (($x9140 (= cell_1_5 2)))
 (let (($x6382 (= cell_1_5 1)))
 (or $x6382 $x9140 $x5433 $x6109 $x5903 $x1881 $x2558 $x8575 $x1500)))))))))))
(assert
 (let (($x1295 (= cell_2_5 1)))
 (or $x1295 (= cell_2_5 2) (= cell_2_5 3) (= cell_2_5 4) (= cell_2_5 5) (= cell_2_5 6) (= cell_2_5 7) (= cell_2_5 8) (= cell_2_5 9))))
(assert
 (let (($x4046 (= cell_3_5 9)))
 (let (($x9328 (= cell_3_5 8)))
 (let (($x8702 (= cell_3_5 7)))
 (let (($x7170 (= cell_3_5 6)))
 (let (($x5380 (= cell_3_5 5)))
 (let (($x4053 (= cell_3_5 4)))
 (let (($x8689 (= cell_3_5 3)))
 (let (($x2084 (= cell_3_5 2)))
 (let (($x8328 (= cell_3_5 1)))
 (or $x8328 $x2084 $x8689 $x4053 $x5380 $x7170 $x8702 $x9328 $x4046)))))))))))
(assert
 (let (($x2248 (= cell_4_5 1)))
 (or $x2248 (= cell_4_5 2) (= cell_4_5 3) (= cell_4_5 4) (= cell_4_5 5) (= cell_4_5 6) (= cell_4_5 7) (= cell_4_5 8) (= cell_4_5 9))))
(assert
 (let (($x6510 (= cell_5_5 9)))
 (let (($x3095 (= cell_5_5 8)))
 (let (($x5693 (= cell_5_5 7)))
 (let (($x9087 (= cell_5_5 6)))
 (let (($x7163 (= cell_5_5 5)))
 (let (($x5237 (= cell_5_5 4)))
 (let (($x1312 (= cell_5_5 3)))
 (let (($x9868 (= cell_5_5 2)))
 (let (($x1183 (= cell_5_5 1)))
 (or $x1183 $x9868 $x1312 $x5237 $x7163 $x9087 $x5693 $x3095 $x6510)))))))))))
(assert
 (let (($x2060 (= cell_6_5 1)))
 (or $x2060 (= cell_6_5 2) (= cell_6_5 3) (= cell_6_5 4) (= cell_6_5 5) (= cell_6_5 6) (= cell_6_5 7) (= cell_6_5 8) (= cell_6_5 9))))
(assert
 (or (= cell_7_5 1) (= cell_7_5 2) (= cell_7_5 3) (= cell_7_5 4) (= cell_7_5 5) (= cell_7_5 6) (= cell_7_5 7) (= cell_7_5 8) (= cell_7_5 9)))
(assert
 (or (= cell_8_5 1) (= cell_8_5 2) (= cell_8_5 3) (= cell_8_5 4) (= cell_8_5 5) (= cell_8_5 6) (= cell_8_5 7) (= cell_8_5 8) (= cell_8_5 9)))
(assert
 (or (= cell_9_5 1) (= cell_9_5 2) (= cell_9_5 3) (= cell_9_5 4) (= cell_9_5 5) (= cell_9_5 6) (= cell_9_5 7) (= cell_9_5 8) (= cell_9_5 9)))
(assert
 (let (($x1727 (= cell_1_6 9)))
 (let (($x5924 (= cell_1_6 8)))
 (let (($x8 (= cell_1_6 7)))
 (let (($x609 (= cell_1_6 6)))
 (let (($x2386 (= cell_1_6 5)))
 (let (($x9734 (= cell_1_6 4)))
 (let (($x4661 (= cell_1_6 3)))
 (let (($x1891 (= cell_1_6 2)))
 (let (($x8431 (= cell_1_6 1)))
 (or $x8431 $x1891 $x4661 $x9734 $x2386 $x609 $x8 $x5924 $x1727)))))))))))
(assert
 (let (($x6747 (= cell_2_6 1)))
 (or $x6747 (= cell_2_6 2) (= cell_2_6 3) (= cell_2_6 4) (= cell_2_6 5) (= cell_2_6 6) (= cell_2_6 7) (= cell_2_6 8) (= cell_2_6 9))))
(assert
 (let (($x5969 (= cell_3_6 9)))
 (let (($x7339 (= cell_3_6 8)))
 (let (($x6927 (= cell_3_6 7)))
 (let (($x6075 (= cell_3_6 6)))
 (let (($x9818 (= cell_3_6 5)))
 (let (($x2640 (= cell_3_6 4)))
 (let (($x8817 (= cell_3_6 3)))
 (let (($x1181 (= cell_3_6 2)))
 (let (($x7781 (= cell_3_6 1)))
 (or $x7781 $x1181 $x8817 $x2640 $x9818 $x6075 $x6927 $x7339 $x5969)))))))))))
(assert
 (let (($x8901 (= cell_4_6 1)))
 (or $x8901 (= cell_4_6 2) (= cell_4_6 3) (= cell_4_6 4) (= cell_4_6 5) (= cell_4_6 6) (= cell_4_6 7) (= cell_4_6 8) (= cell_4_6 9))))
(assert
 (let (($x9607 (= cell_5_6 9)))
 (let (($x8777 (= cell_5_6 8)))
 (let (($x7785 (= cell_5_6 7)))
 (let (($x683 (= cell_5_6 6)))
 (let (($x7949 (= cell_5_6 5)))
 (let (($x8884 (= cell_5_6 4)))
 (let (($x4794 (= cell_5_6 3)))
 (let (($x7334 (= cell_5_6 2)))
 (let (($x4253 (= cell_5_6 1)))
 (or $x4253 $x7334 $x4794 $x8884 $x7949 $x683 $x7785 $x8777 $x9607)))))))))))
(assert
 (let (($x2473 (= cell_6_6 1)))
 (or $x2473 (= cell_6_6 2) (= cell_6_6 3) (= cell_6_6 4) (= cell_6_6 5) (= cell_6_6 6) (= cell_6_6 7) (= cell_6_6 8) (= cell_6_6 9))))
(assert
 (or (= cell_7_6 1) (= cell_7_6 2) (= cell_7_6 3) (= cell_7_6 4) (= cell_7_6 5) (= cell_7_6 6) (= cell_7_6 7) (= cell_7_6 8) (= cell_7_6 9)))
(assert
 (let (($x5561 (= cell_8_6 1)))
 (or $x5561 (= cell_8_6 2) (= cell_8_6 3) (= cell_8_6 4) (= cell_8_6 5) (= cell_8_6 6) (= cell_8_6 7) (= cell_8_6 8) (= cell_8_6 9))))
(assert
 (or (= cell_9_6 1) (= cell_9_6 2) (= cell_9_6 3) (= cell_9_6 4) (= cell_9_6 5) (= cell_9_6 6) (= cell_9_6 7) (= cell_9_6 8) (= cell_9_6 9)))
(assert
 (let (($x2310 (= cell_1_7 9)))
 (let (($x8768 (= cell_1_7 8)))
 (let (($x827 (= cell_1_7 7)))
 (let (($x3086 (= cell_1_7 6)))
 (let (($x129 (= cell_1_7 5)))
 (let (($x8373 (= cell_1_7 4)))
 (let (($x6257 (= cell_1_7 3)))
 (let (($x6634 (= cell_1_7 2)))
 (let (($x7173 (= cell_1_7 1)))
 (or $x7173 $x6634 $x6257 $x8373 $x129 $x3086 $x827 $x8768 $x2310)))))))))))
(assert
 (let (($x4618 (= cell_2_7 9)))
 (let (($x3148 (= cell_2_7 8)))
 (let (($x409 (= cell_2_7 7)))
 (let (($x3469 (= cell_2_7 6)))
 (let (($x391 (= cell_2_7 5)))
 (let (($x8741 (= cell_2_7 4)))
 (let (($x2145 (= cell_2_7 3)))
 (let (($x9312 (= cell_2_7 2)))
 (let (($x10183 (= cell_2_7 1)))
 (or $x10183 $x9312 $x2145 $x8741 $x391 $x3469 $x409 $x3148 $x4618)))))))))))
(assert
 (let (($x2297 (= cell_3_7 9)))
 (let (($x4486 (= cell_3_7 8)))
 (let (($x8950 (= cell_3_7 7)))
 (let (($x9047 (= cell_3_7 6)))
 (let (($x8597 (= cell_3_7 5)))
 (let (($x1665 (= cell_3_7 4)))
 (let (($x2003 (= cell_3_7 3)))
 (let (($x3773 (= cell_3_7 2)))
 (let (($x6871 (= cell_3_7 1)))
 (or $x6871 $x3773 $x2003 $x1665 $x8597 $x9047 $x8950 $x4486 $x2297)))))))))))
(assert
 (let (($x10034 (= cell_4_7 9)))
 (let (($x4041 (= cell_4_7 8)))
 (let (($x1603 (= cell_4_7 7)))
 (let (($x3894 (= cell_4_7 6)))
 (let (($x4487 (= cell_4_7 5)))
 (let (($x2874 (= cell_4_7 4)))
 (let (($x7611 (= cell_4_7 3)))
 (let (($x10189 (= cell_4_7 2)))
 (let (($x1446 (= cell_4_7 1)))
 (or $x1446 $x10189 $x7611 $x2874 $x4487 $x3894 $x1603 $x4041 $x10034)))))))))))
(assert
 (let (($x1839 (= cell_5_7 9)))
 (let (($x8997 (= cell_5_7 8)))
 (let (($x4361 (= cell_5_7 7)))
 (let (($x2651 (= cell_5_7 6)))
 (let (($x7502 (= cell_5_7 5)))
 (let (($x2990 (= cell_5_7 4)))
 (let (($x7546 (= cell_5_7 3)))
 (let (($x2895 (= cell_5_7 2)))
 (let (($x682 (= cell_5_7 1)))
 (or $x682 $x2895 $x7546 $x2990 $x7502 $x2651 $x4361 $x8997 $x1839)))))))))))
(assert
 (let (($x8968 (= cell_6_7 1)))
 (or $x8968 (= cell_6_7 2) (= cell_6_7 3) (= cell_6_7 4) (= cell_6_7 5) (= cell_6_7 6) (= cell_6_7 7) (= cell_6_7 8) (= cell_6_7 9))))
(assert
 (let (($x2069 (= cell_7_7 1)))
 (or $x2069 (= cell_7_7 2) (= cell_7_7 3) (= cell_7_7 4) (= cell_7_7 5) (= cell_7_7 6) (= cell_7_7 7) (= cell_7_7 8) (= cell_7_7 9))))
(assert
 (or (= cell_8_7 1) (= cell_8_7 2) (= cell_8_7 3) (= cell_8_7 4) (= cell_8_7 5) (= cell_8_7 6) (= cell_8_7 7) (= cell_8_7 8) (= cell_8_7 9)))
(assert
 (or (= cell_9_7 1) (= cell_9_7 2) (= cell_9_7 3) (= cell_9_7 4) (= cell_9_7 5) (= cell_9_7 6) (= cell_9_7 7) (= cell_9_7 8) (= cell_9_7 9)))
(assert
 (let (($x3467 (= cell_1_8 9)))
 (let (($x1213 (= cell_1_8 8)))
 (let (($x6658 (= cell_1_8 7)))
 (let (($x8596 (= cell_1_8 6)))
 (let (($x459 (= cell_1_8 5)))
 (let (($x6326 (= cell_1_8 4)))
 (let (($x6452 (= cell_1_8 3)))
 (let (($x5805 (= cell_1_8 2)))
 (let (($x9899 (= cell_1_8 1)))
 (or $x9899 $x5805 $x6452 $x6326 $x459 $x8596 $x6658 $x1213 $x3467)))))))))))
(assert
 (let (($x3914 (= cell_2_8 9)))
 (let (($x4359 (= cell_2_8 8)))
 (let (($x8919 (= cell_2_8 7)))
 (let (($x5861 (= cell_2_8 6)))
 (let (($x2039 (= cell_2_8 5)))
 (let (($x7012 (= cell_2_8 4)))
 (let (($x6288 (= cell_2_8 3)))
 (let (($x2031 (= cell_2_8 2)))
 (let (($x1883 (= cell_2_8 1)))
 (or $x1883 $x2031 $x6288 $x7012 $x2039 $x5861 $x8919 $x4359 $x3914)))))))))))
(assert
 (let (($x5590 (= cell_3_8 1)))
 (or $x5590 (= cell_3_8 2) (= cell_3_8 3) (= cell_3_8 4) (= cell_3_8 5) (= cell_3_8 6) (= cell_3_8 7) (= cell_3_8 8) (= cell_3_8 9))))
(assert
 (let (($x3173 (= cell_4_8 9)))
 (let (($x9300 (= cell_4_8 8)))
 (let (($x3201 (= cell_4_8 7)))
 (let (($x6328 (= cell_4_8 6)))
 (let (($x6916 (= cell_4_8 5)))
 (let (($x8785 (= cell_4_8 4)))
 (let (($x3465 (= cell_4_8 3)))
 (let (($x7106 (= cell_4_8 2)))
 (let (($x3956 (= cell_4_8 1)))
 (or $x3956 $x7106 $x3465 $x8785 $x6916 $x6328 $x3201 $x9300 $x3173)))))))))))
(assert
 (let (($x7755 (= cell_5_8 9)))
 (let (($x3462 (= cell_5_8 8)))
 (let (($x7534 (= cell_5_8 7)))
 (let (($x8523 (= cell_5_8 6)))
 (let (($x8869 (= cell_5_8 5)))
 (let (($x8297 (= cell_5_8 4)))
 (let (($x8190 (= cell_5_8 3)))
 (let (($x1570 (= cell_5_8 2)))
 (let (($x304 (= cell_5_8 1)))
 (or $x304 $x1570 $x8190 $x8297 $x8869 $x8523 $x7534 $x3462 $x7755)))))))))))
(assert
 (let (($x10141 (= cell_6_8 1)))
 (or $x10141 (= cell_6_8 2) (= cell_6_8 3) (= cell_6_8 4) (= cell_6_8 5) (= cell_6_8 6) (= cell_6_8 7) (= cell_6_8 8) (= cell_6_8 9))))
(assert
 (let (($x9886 (= cell_7_8 1)))
 (or $x9886 (= cell_7_8 2) (= cell_7_8 3) (= cell_7_8 4) (= cell_7_8 5) (= cell_7_8 6) (= cell_7_8 7) (= cell_7_8 8) (= cell_7_8 9))))
(assert
 (let (($x2609 (= cell_8_8 1)))
 (or $x2609 (= cell_8_8 2) (= cell_8_8 3) (= cell_8_8 4) (= cell_8_8 5) (= cell_8_8 6) (= cell_8_8 7) (= cell_8_8 8) (= cell_8_8 9))))
(assert
 (let (($x1976 (= cell_9_8 1)))
 (or $x1976 (= cell_9_8 2) (= cell_9_8 3) (= cell_9_8 4) (= cell_9_8 5) (= cell_9_8 6) (= cell_9_8 7) (= cell_9_8 8) (= cell_9_8 9))))
(assert
 (let (($x2939 (= cell_1_9 9)))
 (let (($x4699 (= cell_1_9 8)))
 (let (($x4460 (= cell_1_9 7)))
 (let (($x2093 (= cell_1_9 6)))
 (let (($x765 (= cell_1_9 5)))
 (let (($x5602 (= cell_1_9 4)))
 (let (($x4977 (= cell_1_9 3)))
 (let (($x2005 (= cell_1_9 2)))
 (let (($x3769 (= cell_1_9 1)))
 (or $x3769 $x2005 $x4977 $x5602 $x765 $x2093 $x4460 $x4699 $x2939)))))))))))
(assert
 (let (($x6801 (= cell_2_9 9)))
 (let (($x5890 (= cell_2_9 8)))
 (let (($x1711 (= cell_2_9 7)))
 (let (($x1434 (= cell_2_9 6)))
 (let (($x5653 (= cell_2_9 5)))
 (let (($x8173 (= cell_2_9 4)))
 (let (($x2692 (= cell_2_9 3)))
 (let (($x8533 (= cell_2_9 2)))
 (let (($x2958 (= cell_2_9 1)))
 (or $x2958 $x8533 $x2692 $x8173 $x5653 $x1434 $x1711 $x5890 $x6801)))))))))))
(assert
 (let (($x7970 (= cell_3_9 9)))
 (let (($x2057 (= cell_3_9 8)))
 (let (($x2249 (= cell_3_9 7)))
 (let (($x4623 (= cell_3_9 6)))
 (let (($x878 (= cell_3_9 5)))
 (let (($x6496 (= cell_3_9 4)))
 (let (($x4411 (= cell_3_9 3)))
 (let (($x5639 (= cell_3_9 2)))
 (let (($x9594 (= cell_3_9 1)))
 (or $x9594 $x5639 $x4411 $x6496 $x878 $x4623 $x2249 $x2057 $x7970)))))))))))
(assert
 (let (($x6788 (= cell_4_9 9)))
 (let (($x4481 (= cell_4_9 8)))
 (let (($x8191 (= cell_4_9 7)))
 (let (($x3955 (= cell_4_9 6)))
 (let (($x9962 (= cell_4_9 5)))
 (let (($x5913 (= cell_4_9 4)))
 (let (($x3175 (= cell_4_9 3)))
 (let (($x10080 (= cell_4_9 2)))
 (let (($x8003 (= cell_4_9 1)))
 (or $x8003 $x10080 $x3175 $x5913 $x9962 $x3955 $x8191 $x4481 $x6788)))))))))))
(assert
 (let (($x4406 (= cell_5_9 1)))
 (or $x4406 (= cell_5_9 2) (= cell_5_9 3) (= cell_5_9 4) (= cell_5_9 5) (= cell_5_9 6) (= cell_5_9 7) (= cell_5_9 8) (= cell_5_9 9))))
(assert
 (let (($x2702 (= cell_6_9 1)))
 (or $x2702 (= cell_6_9 2) (= cell_6_9 3) (= cell_6_9 4) (= cell_6_9 5) (= cell_6_9 6) (= cell_6_9 7) (= cell_6_9 8) (= cell_6_9 9))))
(assert
 (let (($x9556 (= cell_7_9 1)))
 (or $x9556 (= cell_7_9 2) (= cell_7_9 3) (= cell_7_9 4) (= cell_7_9 5) (= cell_7_9 6) (= cell_7_9 7) (= cell_7_9 8) (= cell_7_9 9))))
(assert
 (let (($x337 (= cell_8_9 1)))
 (or $x337 (= cell_8_9 2) (= cell_8_9 3) (= cell_8_9 4) (= cell_8_9 5) (= cell_8_9 6) (= cell_8_9 7) (= cell_8_9 8) (= cell_8_9 9))))
(assert
 (let (($x3663 (= cell_9_9 1)))
 (or $x3663 (= cell_9_9 2) (= cell_9_9 3) (= cell_9_9 4) (= cell_9_9 5) (= cell_9_9 6) (= cell_9_9 7) (= cell_9_9 8) (= cell_9_9 9))))
(assert
 (and (distinct cell_1_1 cell_1_2 cell_1_3 cell_1_4 cell_1_5 cell_1_6 cell_1_7 cell_1_8 cell_1_9) true))
(assert
 (and (distinct cell_2_1 cell_2_2 cell_2_3 cell_2_4 cell_2_5 cell_2_6 cell_2_7 cell_2_8 cell_2_9) true))
(assert
 (and (distinct cell_3_1 cell_3_2 cell_3_3 cell_3_4 cell_3_5 cell_3_6 cell_3_7 cell_3_8 cell_3_9) true))
(assert
 (and (distinct cell_4_1 cell_4_2 cell_4_3 cell_4_4 cell_4_5 cell_4_6 cell_4_7 cell_4_8 cell_4_9) true))
(assert
 (and (distinct cell_5_1 cell_5_2 cell_5_3 cell_5_4 cell_5_5 cell_5_6 cell_5_7 cell_5_8 cell_5_9) true))
(assert
 (and (distinct cell_6_1 cell_6_2 cell_6_3 cell_6_4 cell_6_5 cell_6_6 cell_6_7 cell_6_8 cell_6_9) true))
(assert
 (and (distinct cell_7_1 cell_7_2 cell_7_3 cell_7_4 cell_7_5 cell_7_6 cell_7_7 cell_7_8 cell_7_9) true))
(assert
 (and (distinct cell_8_1 cell_8_2 cell_8_3 cell_8_4 cell_8_5 cell_8_6 cell_8_7 cell_8_8 cell_8_9) true))
(assert
 (and (distinct cell_9_1 cell_9_2 cell_9_3 cell_9_4 cell_9_5 cell_9_6 cell_9_7 cell_9_8 cell_9_9) true))
(assert
 (and (distinct cell_1_1 cell_2_1 cell_3_1 cell_4_1 cell_5_1 cell_6_1 cell_7_1 cell_8_1 cell_9_1) true))
(assert
 (and (distinct cell_1_2 cell_2_2 cell_3_2 cell_4_2 cell_5_2 cell_6_2 cell_7_2 cell_8_2 cell_9_2) true))
(assert
 (and (distinct cell_1_3 cell_2_3 cell_3_3 cell_4_3 cell_5_3 cell_6_3 cell_7_3 cell_8_3 cell_9_3) true))
(assert
 (and (distinct cell_1_4 cell_2_4 cell_3_4 cell_4_4 cell_5_4 cell_6_4 cell_7_4 cell_8_4 cell_9_4) true))
(assert
 (and (distinct cell_1_5 cell_2_5 cell_3_5 cell_4_5 cell_5_5 cell_6_5 cell_7_5 cell_8_5 cell_9_5) true))
(assert
 (and (distinct cell_1_6 cell_2_6 cell_3_6 cell_4_6 cell_5_6 cell_6_6 cell_7_6 cell_8_6 cell_9_6) true))
(assert
 (and (distinct cell_1_7 cell_2_7 cell_3_7 cell_4_7 cell_5_7 cell_6_7 cell_7_7 cell_8_7 cell_9_7) true))
(assert
 (and (distinct cell_1_8 cell_2_8 cell_3_8 cell_4_8 cell_5_8 cell_6_8 cell_7_8 cell_8_8 cell_9_8) true))
(assert
 (and (distinct cell_1_9 cell_2_9 cell_3_9 cell_4_9 cell_5_9 cell_6_9 cell_7_9 cell_8_9 cell_9_9) true))
(assert
 (and (distinct cell_1_1 cell_1_2 cell_1_3 cell_2_1 cell_2_2 cell_2_3 cell_3_1 cell_3_2 cell_3_3) true))
(assert
 (and (distinct cell_1_4 cell_1_5 cell_1_6 cell_2_4 cell_2_5 cell_2_6 cell_3_4 cell_3_5 cell_3_6) true))
(assert
 (and (distinct cell_1_7 cell_1_8 cell_1_9 cell_2_7 cell_2_8 cell_2_9 cell_3_7 cell_3_8 cell_3_9) true))
(assert
 (and (distinct cell_4_1 cell_4_2 cell_4_3 cell_5_1 cell_5_2 cell_5_3 cell_6_1 cell_6_2 cell_6_3) true))
(assert
 (and (distinct cell_4_4 cell_4_5 cell_4_6 cell_5_4 cell_5_5 cell_5_6 cell_6_4 cell_6_5 cell_6_6) true))
(assert
 (and (distinct cell_4_7 cell_4_8 cell_4_9 cell_5_7 cell_5_8 cell_5_9 cell_6_7 cell_6_8 cell_6_9) true))
(assert
 (and (distinct cell_7_1 cell_7_2 cell_7_3 cell_8_1 cell_8_2 cell_8_3 cell_9_1 cell_9_2 cell_9_3) true))
(assert
 (and (distinct cell_7_4 cell_7_5 cell_7_6 cell_8_4 cell_8_5 cell_8_6 cell_9_4 cell_9_5 cell_9_6) true))
(assert
 (and (distinct cell_7_7 cell_7_8 cell_7_9 cell_8_7 cell_8_8 cell_8_9 cell_9_7 cell_9_8 cell_9_9) true))
(assert
 (let (($x4953 (and (distinct cell_5_9 cell_6_8 cell_7_7 cell_8_6) true)))
 (let (($x8126 (and (distinct cell_2_9 cell_3_8 cell_4_7 cell_5_6 cell_6_5 cell_7_4 cell_8_3 cell_9_2) true)))
 (let (($x2312 (and (distinct cell_1_8 cell_2_7 cell_3_6 cell_4_5 cell_5_4 cell_6_3 cell_7_2 cell_8_1) true)))
 (let (($x1342 (and (distinct cell_1_5 cell_2_4 cell_3_3 cell_4_2) true)))
 (let (($x6873 (and (distinct cell_5_1 cell_6_2 cell_7_3 cell_8_4) true)))
 (let (($x2520 (and (distinct cell_2_1 cell_3_2 cell_4_3 cell_5_4 cell_6_5 cell_7_6 cell_8_7 cell_9_8) true)))
 (let (($x8401 (and (distinct cell_1_2 cell_2_3 cell_3_4 cell_4_5 cell_5_6 cell_6_7 cell_7_8 cell_8_9) true)))
 (let (($x5146 (and (distinct cell_1_5 cell_2_6 cell_3_7 cell_4_8) true)))
 (and $x5146 $x8401 $x2520 $x6873 $x1342 $x2312 $x8126 $x4953))))))))))
(assert
 (= cell_6_6 1))
(check-sat)
